\ENCODING=ISO-8859-1
\Problem name: ilog.cplex

Minimize
 obj1: x1 + x2 + x3 + x4 + x5 + x6 + x7 + x8 + x9 + x10 + x11 + x12 + x13 + x14
       + x15 + x16 + x17 + x18 + x19 + x20
Subject To
 c1:  x1 + x2 >= 1
 c2:  x2 + x3 >= 1
 c3:  x3 + x4 >= 1
 c4:  x4 + x5 >= 1
 c5:  x5 + x6 >= 1
 c6:  x6 + x7 >= 1
 c7:  x7 + x8 >= 1
 c8:  x8 + x9 >= 1
 c9:  x9 + x10 >= 1
 c10: x10 + x11 >= 1
 c11: x11 + x12 >= 1
 c12: x12 + x13 >= 1
 c13: x13 + x14 >= 1
 c14: x14 + x15 >= 1
 c15: x15 + x16 >= 1
 c16: x16 + x17 >= 1
 c17: x17 + x18 >= 1
 c18: x18 + x19 >= 1
 c19: x19 + x20 >= 1
 c20: x18 + x20 >= 1
Bounds
 0 <= x1 <= 1
 0 <= x2 <= 1
 0 <= x3 <= 1
 0 <= x4 <= 1
 0 <= x5 <= 1
 0 <= x6 <= 1
 0 <= x7 <= 1
 0 <= x8 <= 1
 0 <= x9 <= 1
 0 <= x10 <= 1
 0 <= x11 <= 1
 0 <= x12 <= 1
 0 <= x13 <= 1
 0 <= x14 <= 1
 0 <= x15 <= 1
 0 <= x16 <= 1
 0 <= x17 <= 1
 0 <= x18 <= 1
 0 <= x19 <= 1
 0 <= x20 <= 1
Binaries
 x1  x2  x3  x4  x5  x6  x7  x8  x9  x10  x11  x12  x13  x14  x15  x16  x17 
 x18  x19  x20 
End
